PointerNetwork/Ptr_Net_TSPTW/benchmark/n20w80/n20w80.004.txt.solution
1 11 19 4 18 9 20 3 8 12 5 2 15 10 14 17 7 6 21 16 13 
304
